c sudoku, order: 9, holes: 64
c 
c 6..3.2...
c .5.....1.
c .........
c 7.26.....
c .......54
c 3........
c .8.15....
c ....4.2..
c ......7..
c 
p cnf 303 2851
-1 -2 0
-1 -3 0
-1 -4 0
-2 -3 0
-2 -4 0
-3 -4 0
-5 -6 0
-5 -7 0
-5 -8 0
-5 -9 0
-6 -7 0
-6 -8 0
-6 -9 0
-7 -8 0
-7 -9 0
-8 -9 0
-10 -11 0
-10 -12 0
-10 -13 0
-11 -12 0
-11 -13 0
-12 -13 0
-14 -15 0
-14 -16 0
-14 -17 0
-15 -16 0
-15 -17 0
-16 -17 0
-18 -19 0
-18 -20 0
-18 -21 0
-19 -20 0
-19 -21 0
-20 -21 0
-22 -23 0
-22 -24 0
-22 -25 0
-23 -24 0
-23 -25 0
-24 -25 0
-26 -27 0
-26 -28 0
-26 -29 0
-27 -28 0
-27 -29 0
-28 -29 0
-30 -31 0
-30 -32 0
-30 -33 0
-30 -34 0
-31 -32 0
-31 -33 0
-31 -34 0
-32 -33 0
-32 -34 0
-33 -34 0
-35 -36 0
-35 -37 0
-35 -38 0
-36 -37 0
-36 -38 0
-37 -38 0
-39 -40 0
-39 -41 0
-39 -42 0
-40 -41 0
-40 -42 0
-41 -42 0
-43 -44 0
-43 -45 0
-43 -46 0
-43 -47 0
-44 -45 0
-44 -46 0
-44 -47 0
-45 -46 0
-45 -47 0
-46 -47 0
-48 -49 0
-48 -50 0
-48 -51 0
-48 -52 0
-49 -50 0
-49 -51 0
-49 -52 0
-50 -51 0
-50 -52 0
-51 -52 0
-53 -54 0
-53 -55 0
-53 -56 0
-53 -57 0
-53 -58 0
-54 -55 0
-54 -56 0
-54 -57 0
-54 -58 0
-55 -56 0
-55 -57 0
-55 -58 0
-56 -57 0
-56 -58 0
-57 -58 0
-59 -60 0
-59 -61 0
-59 -62 0
-59 -63 0
-60 -61 0
-60 -62 0
-60 -63 0
-61 -62 0
-61 -63 0
-62 -63 0
-64 -65 0
-64 -66 0
-64 -67 0
-64 -68 0
-64 -69 0
-65 -66 0
-65 -67 0
-65 -68 0
-65 -69 0
-66 -67 0
-66 -68 0
-66 -69 0
-67 -68 0
-67 -69 0
-68 -69 0
-70 -71 0
-70 -72 0
-70 -73 0
-70 -74 0
-70 -75 0
-71 -72 0
-71 -73 0
-71 -74 0
-71 -75 0
-72 -73 0
-72 -74 0
-72 -75 0
-73 -74 0
-73 -75 0
-74 -75 0
-76 -77 0
-76 -78 0
-76 -79 0
-76 -80 0
-77 -78 0
-77 -79 0
-77 -80 0
-78 -79 0
-78 -80 0
-79 -80 0
-81 -82 0
-81 -83 0
-81 -84 0
-81 -85 0
-82 -83 0
-82 -84 0
-82 -85 0
-83 -84 0
-83 -85 0
-84 -85 0
-86 -87 0
-86 -88 0
-86 -89 0
-86 -90 0
-86 -91 0
-86 -92 0
-87 -88 0
-87 -89 0
-87 -90 0
-87 -91 0
-87 -92 0
-88 -89 0
-88 -90 0
-88 -91 0
-88 -92 0
-89 -90 0
-89 -91 0
-89 -92 0
-90 -91 0
-90 -92 0
-91 -92 0
-93 -94 0
-93 -95 0
-93 -96 0
-93 -97 0
-93 -98 0
-94 -95 0
-94 -96 0
-94 -97 0
-94 -98 0
-95 -96 0
-95 -97 0
-95 -98 0
-96 -97 0
-96 -98 0
-97 -98 0
-99 -100 0
-99 -101 0
-99 -102 0
-99 -103 0
-99 -104 0
-99 -105 0
-100 -101 0
-100 -102 0
-100 -103 0
-100 -104 0
-100 -105 0
-101 -102 0
-101 -103 0
-101 -104 0
-101 -105 0
-102 -103 0
-102 -104 0
-102 -105 0
-103 -104 0
-103 -105 0
-104 -105 0
-106 -107 0
-106 -108 0
-106 -109 0
-106 -110 0
-106 -111 0
-106 -112 0
-107 -108 0
-107 -109 0
-107 -110 0
-107 -111 0
-107 -112 0
-108 -109 0
-108 -110 0
-108 -111 0
-108 -112 0
-109 -110 0
-109 -111 0
-109 -112 0
-110 -111 0
-110 -112 0
-111 -112 0
-113 -114 0
-113 -115 0
-114 -115 0
-116 -117 0
-116 -118 0
-116 -119 0
-117 -118 0
-117 -119 0
-118 -119 0
-120 -121 0
-120 -122 0
-120 -123 0
-120 -124 0
-120 -125 0
-121 -122 0
-121 -123 0
-121 -124 0
-121 -125 0
-122 -123 0
-122 -124 0
-122 -125 0
-123 -124 0
-123 -125 0
-124 -125 0
-126 -127 0
-126 -128 0
-126 -129 0
-127 -128 0
-127 -129 0
-128 -129 0
-130 -131 0
-130 -132 0
-131 -132 0
-133 -134 0
-133 -135 0
-133 -136 0
-134 -135 0
-134 -136 0
-135 -136 0
-137 -138 0
-137 -139 0
-138 -139 0
-140 -141 0
-140 -142 0
-141 -142 0
-143 -144 0
-143 -145 0
-143 -146 0
-144 -145 0
-144 -146 0
-145 -146 0
-147 -148 0
-147 -149 0
-147 -150 0
-148 -149 0
-148 -150 0
-149 -150 0
-151 -152 0
-151 -153 0
-151 -154 0
-151 -155 0
-151 -156 0
-152 -153 0
-152 -154 0
-152 -155 0
-152 -156 0
-153 -154 0
-153 -155 0
-153 -156 0
-154 -155 0
-154 -156 0
-155 -156 0
-157 -158 0
-157 -159 0
-157 -160 0
-157 -161 0
-158 -159 0
-158 -160 0
-158 -161 0
-159 -160 0
-159 -161 0
-160 -161 0
-162 -163 0
-162 -164 0
-162 -165 0
-162 -166 0
-163 -164 0
-163 -165 0
-163 -166 0
-164 -165 0
-164 -166 0
-165 -166 0
-167 -168 0
-167 -169 0
-167 -170 0
-168 -169 0
-168 -170 0
-169 -170 0
-171 -172 0
-171 -173 0
-171 -174 0
-171 -175 0
-171 -176 0
-172 -173 0
-172 -174 0
-172 -175 0
-172 -176 0
-173 -174 0
-173 -175 0
-173 -176 0
-174 -175 0
-174 -176 0
-175 -176 0
-177 -178 0
-177 -179 0
-177 -180 0
-177 -181 0
-177 -182 0
-178 -179 0
-178 -180 0
-178 -181 0
-178 -182 0
-179 -180 0
-179 -181 0
-179 -182 0
-180 -181 0
-180 -182 0
-181 -182 0
-183 -184 0
-183 -185 0
-183 -186 0
-183 -187 0
-184 -185 0
-184 -186 0
-184 -187 0
-185 -186 0
-185 -187 0
-186 -187 0
-188 -189 0
-188 -190 0
-188 -191 0
-188 -192 0
-188 -193 0
-189 -190 0
-189 -191 0
-189 -192 0
-189 -193 0
-190 -191 0
-190 -192 0
-190 -193 0
-191 -192 0
-191 -193 0
-192 -193 0
-194 -195 0
-194 -196 0
-194 -197 0
-195 -196 0
-195 -197 0
-196 -197 0
-198 -199 0
-198 -200 0
-198 -201 0
-198 -202 0
-199 -200 0
-199 -201 0
-199 -202 0
-200 -201 0
-200 -202 0
-201 -202 0
-203 -204 0
-203 -205 0
-203 -206 0
-203 -207 0
-203 -208 0
-204 -205 0
-204 -206 0
-204 -207 0
-204 -208 0
-205 -206 0
-205 -207 0
-205 -208 0
-206 -207 0
-206 -208 0
-207 -208 0
-209 -210 0
-209 -211 0
-210 -211 0
-212 -213 0
-212 -214 0
-212 -215 0
-212 -216 0
-213 -214 0
-213 -215 0
-213 -216 0
-214 -215 0
-214 -216 0
-215 -216 0
-217 -218 0
-217 -219 0
-217 -220 0
-218 -219 0
-218 -220 0
-219 -220 0
-221 -222 0
-221 -223 0
-221 -224 0
-222 -223 0
-222 -224 0
-223 -224 0
-225 -226 0
-225 -227 0
-225 -228 0
-226 -227 0
-226 -228 0
-227 -228 0
-229 -230 0
-229 -231 0
-230 -231 0
-232 -233 0
-232 -234 0
-233 -234 0
-235 -236 0
-235 -237 0
-235 -238 0
-235 -239 0
-236 -237 0
-236 -238 0
-236 -239 0
-237 -238 0
-237 -239 0
-238 -239 0
-240 -241 0
-240 -242 0
-240 -243 0
-240 -244 0
-240 -245 0
-241 -242 0
-241 -243 0
-241 -244 0
-241 -245 0
-242 -243 0
-242 -244 0
-242 -245 0
-243 -244 0
-243 -245 0
-244 -245 0
-246 -247 0
-246 -248 0
-247 -248 0
-249 -250 0
-249 -251 0
-249 -252 0
-249 -253 0
-250 -251 0
-250 -252 0
-250 -253 0
-251 -252 0
-251 -253 0
-252 -253 0
-254 -255 0
-254 -256 0
-254 -257 0
-255 -256 0
-255 -257 0
-256 -257 0
-258 -259 0
-258 -260 0
-258 -261 0
-258 -262 0
-258 -263 0
-259 -260 0
-259 -261 0
-259 -262 0
-259 -263 0
-260 -261 0
-260 -262 0
-260 -263 0
-261 -262 0
-261 -263 0
-262 -263 0
-264 -265 0
-264 -266 0
-264 -267 0
-264 -268 0
-265 -266 0
-265 -267 0
-265 -268 0
-266 -267 0
-266 -268 0
-267 -268 0
-269 -270 0
-269 -271 0
-269 -272 0
-269 -273 0
-269 -274 0
-270 -271 0
-270 -272 0
-270 -273 0
-270 -274 0
-271 -272 0
-271 -273 0
-271 -274 0
-272 -273 0
-272 -274 0
-273 -274 0
-275 -276 0
-275 -277 0
-275 -278 0
-275 -279 0
-275 -280 0
-276 -277 0
-276 -278 0
-276 -279 0
-276 -280 0
-277 -278 0
-277 -279 0
-277 -280 0
-278 -279 0
-278 -280 0
-279 -280 0
-281 -282 0
-281 -283 0
-282 -283 0
-284 -285 0
-284 -286 0
-284 -287 0
-284 -288 0
-285 -286 0
-285 -287 0
-285 -288 0
-286 -287 0
-286 -288 0
-287 -288 0
-289 -290 0
-289 -291 0
-289 -292 0
-290 -291 0
-290 -292 0
-291 -292 0
-293 -294 0
-293 -295 0
-293 -296 0
-293 -297 0
-294 -295 0
-294 -296 0
-294 -297 0
-295 -296 0
-295 -297 0
-296 -297 0
-298 -299 0
-298 -300 0
-298 -301 0
-298 -302 0
-298 -303 0
-299 -300 0
-299 -301 0
-299 -302 0
-299 -303 0
-300 -301 0
-300 -302 0
-300 -303 0
-301 -302 0
-301 -303 0
-302 -303 0
-1 -5 0
-1 -10 0
-5 -10 0
-2 -6 0
-2 -14 0
-2 -18 0
-6 -14 0
-6 -18 0
-14 -18 0
-15 -22 0
-3 -7 0
-3 -11 0
-3 -19 0
-3 -23 0
-7 -11 0
-7 -19 0
-7 -23 0
-11 -19 0
-11 -23 0
-19 -23 0
-8 -12 0
-8 -16 0
-8 -20 0
-8 -24 0
-12 -16 0
-12 -20 0
-12 -24 0
-16 -20 0
-16 -24 0
-20 -24 0
-4 -9 0
-4 -13 0
-4 -17 0
-4 -21 0
-4 -25 0
-9 -13 0
-9 -17 0
-9 -21 0
-9 -25 0
-13 -17 0
-13 -21 0
-13 -25 0
-17 -21 0
-17 -25 0
-21 -25 0
-26 -53 0
-30 -48 0
-30 -54 0
-48 -54 0
-27 -31 0
-27 -35 0
-27 -43 0
-27 -49 0
-31 -35 0
-31 -43 0
-31 -49 0
-35 -43 0
-35 -49 0
-43 -49 0
-39 -44 0
-39 -50 0
-39 -55 0
-44 -50 0
-44 -55 0
-50 -55 0
-32 -36 0
-32 -40 0
-32 -45 0
-32 -56 0
-36 -40 0
-36 -45 0
-36 -56 0
-40 -45 0
-40 -56 0
-45 -56 0
-28 -33 0
-28 -37 0
-28 -41 0
-28 -46 0
-28 -51 0
-28 -57 0
-33 -37 0
-33 -41 0
-33 -46 0
-33 -51 0
-33 -57 0
-37 -41 0
-37 -46 0
-37 -51 0
-37 -57 0
-41 -46 0
-41 -51 0
-41 -57 0
-46 -51 0
-46 -57 0
-51 -57 0
-29 -34 0
-29 -38 0
-29 -42 0
-29 -47 0
-29 -52 0
-29 -58 0
-34 -38 0
-34 -42 0
-34 -47 0
-34 -52 0
-34 -58 0
-38 -42 0
-38 -47 0
-38 -52 0
-38 -58 0
-42 -47 0
-42 -52 0
-42 -58 0
-47 -52 0
-47 -58 0
-52 -58 0
-59 -64 0
-59 -70 0
-59 -81 0
-59 -86 0
-64 -70 0
-64 -81 0
-64 -86 0
-70 -81 0
-70 -86 0
-81 -86 0
-60 -65 0
-60 -99 0
-60 -106 0
-65 -99 0
-65 -106 0
-99 -106 0
-66 -71 0
-66 -93 0
-66 -100 0
-66 -107 0
-71 -93 0
-71 -100 0
-71 -107 0
-93 -100 0
-93 -107 0
-100 -107 0
-61 -67 0
-61 -72 0
-61 -76 0
-61 -87 0
-61 -94 0
-61 -101 0
-67 -72 0
-67 -76 0
-67 -87 0
-67 -94 0
-67 -101 0
-72 -76 0
-72 -87 0
-72 -94 0
-72 -101 0
-76 -87 0
-76 -94 0
-76 -101 0
-87 -94 0
-87 -101 0
-94 -101 0
-77 -88 0
-77 -95 0
-77 -108 0
-88 -95 0
-88 -108 0
-95 -108 0
-82 -89 0
-82 -96 0
-82 -102 0
-82 -109 0
-89 -96 0
-89 -102 0
-89 -109 0
-96 -102 0
-96 -109 0
-102 -109 0
-68 -73 0
-68 -78 0
-68 -83 0
-68 -90 0
-68 -103 0
-68 -110 0
-73 -78 0
-73 -83 0
-73 -90 0
-73 -103 0
-73 -110 0
-78 -83 0
-78 -90 0
-78 -103 0
-78 -110 0
-83 -90 0
-83 -103 0
-83 -110 0
-90 -103 0
-90 -110 0
-103 -110 0
-62 -74 0
-62 -79 0
-62 -84 0
-62 -91 0
-62 -97 0
-62 -104 0
-62 -111 0
-74 -79 0
-74 -84 0
-74 -91 0
-74 -97 0
-74 -104 0
-74 -111 0
-79 -84 0
-79 -91 0
-79 -97 0
-79 -104 0
-79 -111 0
-84 -91 0
-84 -97 0
-84 -104 0
-84 -111 0
-91 -97 0
-91 -104 0
-91 -111 0
-97 -104 0
-97 -111 0
-104 -111 0
-63 -69 0
-63 -75 0
-63 -80 0
-63 -85 0
-63 -92 0
-63 -98 0
-63 -105 0
-63 -112 0
-69 -75 0
-69 -80 0
-69 -85 0
-69 -92 0
-69 -98 0
-69 -105 0
-69 -112 0
-75 -80 0
-75 -85 0
-75 -92 0
-75 -98 0
-75 -105 0
-75 -112 0
-80 -85 0
-80 -92 0
-80 -98 0
-80 -105 0
-80 -112 0
-85 -92 0
-85 -98 0
-85 -105 0
-85 -112 0
-92 -98 0
-92 -105 0
-92 -112 0
-98 -105 0
-98 -112 0
-105 -112 0
-113 -116 0
-113 -120 0
-113 -126 0
-113 -133 0
-116 -120 0
-116 -126 0
-116 -133 0
-120 -126 0
-120 -133 0
-126 -133 0
-117 -121 0
-117 -127 0
-117 -130 0
-117 -134 0
-121 -127 0
-121 -130 0
-121 -134 0
-127 -130 0
-127 -134 0
-130 -134 0
-114 -122 0
-118 -124 0
-118 -128 0
-118 -131 0
-118 -135 0
-124 -128 0
-124 -131 0
-124 -135 0
-128 -131 0
-128 -135 0
-131 -135 0
-115 -119 0
-115 -125 0
-115 -129 0
-115 -132 0
-115 -136 0
-119 -125 0
-119 -129 0
-119 -132 0
-119 -136 0
-125 -129 0
-125 -132 0
-125 -136 0
-129 -132 0
-129 -136 0
-132 -136 0
-137 -140 0
-137 -143 0
-137 -151 0
-137 -157 0
-137 -162 0
-140 -143 0
-140 -151 0
-140 -157 0
-140 -162 0
-143 -151 0
-143 -157 0
-143 -162 0
-151 -157 0
-151 -162 0
-157 -162 0
-147 -152 0
-153 -158 0
-153 -163 0
-158 -163 0
-141 -144 0
-141 -164 0
-144 -164 0
-148 -154 0
-148 -159 0
-154 -159 0
-138 -145 0
-138 -149 0
-138 -155 0
-138 -160 0
-138 -165 0
-145 -149 0
-145 -155 0
-145 -160 0
-145 -165 0
-149 -155 0
-149 -160 0
-149 -165 0
-155 -160 0
-155 -165 0
-160 -165 0
-139 -142 0
-139 -146 0
-139 -150 0
-139 -156 0
-139 -161 0
-139 -166 0
-142 -146 0
-142 -150 0
-142 -156 0
-142 -161 0
-142 -166 0
-146 -150 0
-146 -156 0
-146 -161 0
-146 -166 0
-150 -156 0
-150 -161 0
-150 -166 0
-156 -161 0
-156 -166 0
-161 -166 0
-167 -171 0
-167 -183 0
-167 -188 0
-167 -194 0
-167 -203 0
-171 -183 0
-171 -188 0
-171 -194 0
-171 -203 0
-183 -188 0
-183 -194 0
-183 -203 0
-188 -194 0
-188 -203 0
-194 -203 0
-177 -184 0
-177 -198 0
-177 -204 0
-184 -198 0
-184 -204 0
-198 -204 0
-168 -172 0
-168 -178 0
-168 -189 0
-172 -178 0
-172 -189 0
-178 -189 0
-173 -179 0
-173 -190 0
-179 -190 0
-169 -174 0
-169 -195 0
-169 -199 0
-169 -205 0
-174 -195 0
-174 -199 0
-174 -205 0
-195 -199 0
-195 -205 0
-199 -205 0
-180 -185 0
-180 -191 0
-180 -200 0
-180 -206 0
-185 -191 0
-185 -200 0
-185 -206 0
-191 -200 0
-191 -206 0
-200 -206 0
-175 -181 0
-175 -186 0
-175 -192 0
-175 -196 0
-175 -201 0
-175 -207 0
-181 -186 0
-181 -192 0
-181 -196 0
-181 -201 0
-181 -207 0
-186 -192 0
-186 -196 0
-186 -201 0
-186 -207 0
-192 -196 0
-192 -201 0
-192 -207 0
-196 -201 0
-196 -207 0
-201 -207 0
-170 -176 0
-170 -182 0
-170 -187 0
-170 -193 0
-170 -197 0
-170 -202 0
-170 -208 0
-176 -182 0
-176 -187 0
-176 -193 0
-176 -197 0
-176 -202 0
-176 -208 0
-182 -187 0
-182 -193 0
-182 -197 0
-182 -202 0
-182 -208 0
-187 -193 0
-187 -197 0
-187 -202 0
-187 -208 0
-193 -197 0
-193 -202 0
-193 -208 0
-197 -202 0
-197 -208 0
-202 -208 0
-212 -217 0
-212 -221 0
-212 -225 0
-212 -229 0
-217 -221 0
-217 -225 0
-217 -229 0
-221 -225 0
-221 -229 0
-225 -229 0
-210 -213 0
-210 -222 0
-210 -226 0
-213 -222 0
-213 -226 0
-222 -226 0
-214 -218 0
-214 -223 0
-214 -227 0
-214 -230 0
-218 -223 0
-218 -227 0
-218 -230 0
-223 -227 0
-223 -230 0
-227 -230 0
-215 -219 0
-211 -216 0
-211 -220 0
-211 -224 0
-211 -228 0
-211 -231 0
-216 -220 0
-216 -224 0
-216 -228 0
-216 -231 0
-220 -224 0
-220 -228 0
-220 -231 0
-224 -228 0
-224 -231 0
-228 -231 0
-232 -235 0
-232 -240 0
-232 -258 0
-235 -240 0
-235 -258 0
-240 -258 0
-236 -241 0
-236 -249 0
-236 -254 0
-236 -259 0
-241 -249 0
-241 -254 0
-241 -259 0
-249 -254 0
-249 -259 0
-254 -259 0
-233 -242 0
-233 -260 0
-242 -260 0
-237 -243 0
-237 -250 0
-237 -255 0
-237 -261 0
-243 -250 0
-243 -255 0
-243 -261 0
-250 -255 0
-250 -261 0
-255 -261 0
-238 -244 0
-238 -246 0
-238 -251 0
-244 -246 0
-244 -251 0
-246 -251 0
-247 -252 0
-247 -256 0
-247 -262 0
-252 -256 0
-252 -262 0
-256 -262 0
-234 -239 0
-234 -245 0
-234 -248 0
-234 -253 0
-234 -257 0
-234 -263 0
-239 -245 0
-239 -248 0
-239 -253 0
-239 -257 0
-239 -263 0
-245 -248 0
-245 -253 0
-245 -257 0
-245 -263 0
-248 -253 0
-248 -257 0
-248 -263 0
-253 -257 0
-253 -263 0
-257 -263 0
-264 -269 0
-264 -275 0
-264 -298 0
-269 -275 0
-269 -298 0
-275 -298 0
-265 -270 0
-265 -281 0
-265 -284 0
-270 -281 0
-270 -284 0
-281 -284 0
-271 -276 0
-271 -285 0
-271 -289 0
-271 -293 0
-271 -299 0
-276 -285 0
-276 -289 0
-276 -293 0
-276 -299 0
-285 -289 0
-285 -293 0
-285 -299 0
-289 -293 0
-289 -299 0
-293 -299 0
-266 -272 0
-266 -277 0
-266 -294 0
-272 -277 0
-272 -294 0
-277 -294 0
-267 -278 0
-267 -300 0
-278 -300 0
-273 -279 0
-273 -286 0
-273 -290 0
-273 -295 0
-273 -301 0
-279 -286 0
-279 -290 0
-279 -295 0
-279 -301 0
-286 -290 0
-286 -295 0
-286 -301 0
-290 -295 0
-290 -301 0
-295 -301 0
-282 -287 0
-282 -291 0
-282 -296 0
-282 -302 0
-287 -291 0
-287 -296 0
-287 -302 0
-291 -296 0
-291 -302 0
-296 -302 0
-268 -274 0
-268 -280 0
-268 -283 0
-268 -288 0
-268 -292 0
-268 -297 0
-268 -303 0
-274 -280 0
-274 -283 0
-274 -288 0
-274 -292 0
-274 -297 0
-274 -303 0
-280 -283 0
-280 -288 0
-280 -292 0
-280 -297 0
-280 -303 0
-283 -288 0
-283 -292 0
-283 -297 0
-283 -303 0
-288 -292 0
-288 -297 0
-288 -303 0
-292 -297 0
-292 -303 0
-297 -303 0
-59 -137 0
-59 -232 0
-59 -264 0
-137 -232 0
-137 -264 0
-232 -264 0
-26 -60 0
-26 -209 0
-26 -265 0
-60 -209 0
-60 -265 0
-209 -265 0
-27 -61 0
-27 -210 0
-27 -266 0
-61 -210 0
-61 -266 0
-210 -266 0
-233 -267 0
-28 -62 0
-28 -138 0
-62 -138 0
-29 -63 0
-29 -139 0
-29 -211 0
-29 -234 0
-29 -268 0
-63 -139 0
-63 -211 0
-63 -234 0
-63 -268 0
-139 -211 0
-139 -234 0
-139 -268 0
-211 -234 0
-211 -268 0
-234 -268 0
-1 -64 0
-1 -113 0
-1 -140 0
-1 -167 0
-1 -235 0
-1 -269 0
-64 -113 0
-64 -140 0
-64 -167 0
-64 -235 0
-64 -269 0
-113 -140 0
-113 -167 0
-113 -235 0
-113 -269 0
-140 -167 0
-140 -235 0
-140 -269 0
-167 -235 0
-167 -269 0
-235 -269 0
-65 -270 0
-66 -236 0
-66 -271 0
-236 -271 0
-2 -67 0
-2 -114 0
-2 -168 0
-2 -272 0
-67 -114 0
-67 -168 0
-67 -272 0
-114 -168 0
-114 -272 0
-168 -272 0
-141 -169 0
-141 -237 0
-141 -273 0
-169 -237 0
-169 -273 0
-237 -273 0
-3 -68 0
-3 -238 0
-68 -238 0
-4 -69 0
-4 -115 0
-4 -142 0
-4 -170 0
-4 -239 0
-4 -274 0
-69 -115 0
-69 -142 0
-69 -170 0
-69 -239 0
-69 -274 0
-115 -142 0
-115 -170 0
-115 -239 0
-115 -274 0
-142 -170 0
-142 -239 0
-142 -274 0
-170 -239 0
-170 -274 0
-239 -274 0
-5 -70 0
-5 -143 0
-5 -171 0
-5 -240 0
-5 -275 0
-70 -143 0
-70 -171 0
-70 -240 0
-70 -275 0
-143 -171 0
-143 -240 0
-143 -275 0
-171 -240 0
-171 -275 0
-240 -275 0
-30 -71 0
-30 -212 0
-30 -241 0
-30 -276 0
-71 -212 0
-71 -241 0
-71 -276 0
-212 -241 0
-212 -276 0
-241 -276 0
-6 -31 0
-6 -72 0
-6 -172 0
-6 -213 0
-6 -277 0
-31 -72 0
-31 -172 0
-31 -213 0
-31 -277 0
-72 -172 0
-72 -213 0
-72 -277 0
-172 -213 0
-172 -277 0
-213 -277 0
-173 -242 0
-173 -278 0
-242 -278 0
-144 -174 0
-144 -214 0
-144 -243 0
-144 -279 0
-174 -214 0
-174 -243 0
-174 -279 0
-214 -243 0
-214 -279 0
-243 -279 0
-7 -32 0
-7 -73 0
-7 -215 0
-7 -244 0
-32 -73 0
-32 -215 0
-32 -244 0
-73 -215 0
-73 -244 0
-215 -244 0
-8 -33 0
-8 -74 0
-8 -145 0
-8 -175 0
-33 -74 0
-33 -145 0
-33 -175 0
-74 -145 0
-74 -175 0
-145 -175 0
-9 -34 0
-9 -75 0
-9 -146 0
-9 -176 0
-9 -216 0
-9 -245 0
-9 -280 0
-34 -75 0
-34 -146 0
-34 -176 0
-34 -216 0
-34 -245 0
-34 -280 0
-75 -146 0
-75 -176 0
-75 -216 0
-75 -245 0
-75 -280 0
-146 -176 0
-146 -216 0
-146 -245 0
-146 -280 0
-176 -216 0
-176 -245 0
-176 -280 0
-216 -245 0
-216 -280 0
-245 -280 0
-147 -177 0
-147 -281 0
-177 -281 0
-35 -76 0
-35 -178 0
-76 -178 0
-77 -179 0
-36 -78 0
-36 -148 0
-36 -180 0
-36 -246 0
-78 -148 0
-78 -180 0
-78 -246 0
-148 -180 0
-148 -246 0
-180 -246 0
-37 -79 0
-37 -149 0
-37 -181 0
-37 -247 0
-37 -282 0
-79 -149 0
-79 -181 0
-79 -247 0
-79 -282 0
-149 -181 0
-149 -247 0
-149 -282 0
-181 -247 0
-181 -282 0
-247 -282 0
-38 -80 0
-38 -150 0
-38 -182 0
-38 -248 0
-38 -283 0
-80 -150 0
-80 -182 0
-80 -248 0
-80 -283 0
-150 -182 0
-150 -248 0
-150 -283 0
-182 -248 0
-182 -283 0
-248 -283 0
-10 -81 0
-10 -116 0
-10 -151 0
-10 -183 0
-81 -116 0
-81 -151 0
-81 -183 0
-116 -151 0
-116 -183 0
-151 -183 0
-152 -184 0
-152 -284 0
-184 -284 0
-117 -153 0
-117 -285 0
-153 -285 0
-39 -82 0
-39 -286 0
-82 -286 0
-11 -40 0
-11 -83 0
-11 -154 0
-11 -185 0
-40 -83 0
-40 -154 0
-40 -185 0
-83 -154 0
-83 -185 0
-154 -185 0
-12 -41 0
-12 -84 0
-12 -118 0
-12 -155 0
-12 -186 0
-12 -287 0
-41 -84 0
-41 -118 0
-41 -155 0
-41 -186 0
-41 -287 0
-84 -118 0
-84 -155 0
-84 -186 0
-84 -287 0
-118 -155 0
-118 -186 0
-118 -287 0
-155 -186 0
-155 -287 0
-186 -287 0
-13 -42 0
-13 -85 0
-13 -119 0
-13 -156 0
-13 -187 0
-13 -288 0
-42 -85 0
-42 -119 0
-42 -156 0
-42 -187 0
-42 -288 0
-85 -119 0
-85 -156 0
-85 -187 0
-85 -288 0
-119 -156 0
-119 -187 0
-119 -288 0
-156 -187 0
-156 -288 0
-187 -288 0
-86 -120 0
-86 -157 0
-86 -188 0
-120 -157 0
-120 -188 0
-157 -188 0
-121 -158 0
-121 -217 0
-121 -249 0
-121 -289 0
-158 -217 0
-158 -249 0
-158 -289 0
-217 -249 0
-217 -289 0
-249 -289 0
-43 -87 0
-43 -122 0
-43 -189 0
-87 -122 0
-87 -189 0
-122 -189 0
-88 -123 0
-88 -190 0
-123 -190 0
-44 -89 0
-44 -218 0
-44 -250 0
-44 -290 0
-89 -218 0
-89 -250 0
-89 -290 0
-218 -250 0
-218 -290 0
-250 -290 0
-45 -90 0
-45 -159 0
-45 -191 0
-45 -219 0
-45 -251 0
-90 -159 0
-90 -191 0
-90 -219 0
-90 -251 0
-159 -191 0
-159 -219 0
-159 -251 0
-191 -219 0
-191 -251 0
-219 -251 0
-46 -91 0
-46 -124 0
-46 -160 0
-46 -192 0
-46 -252 0
-46 -291 0
-91 -124 0
-91 -160 0
-91 -192 0
-91 -252 0
-91 -291 0
-124 -160 0
-124 -192 0
-124 -252 0
-124 -291 0
-160 -192 0
-160 -252 0
-160 -291 0
-192 -252 0
-192 -291 0
-252 -291 0
-47 -92 0
-47 -125 0
-47 -161 0
-47 -193 0
-47 -220 0
-47 -253 0
-47 -292 0
-92 -125 0
-92 -161 0
-92 -193 0
-92 -220 0
-92 -253 0
-92 -292 0
-125 -161 0
-125 -193 0
-125 -220 0
-125 -253 0
-125 -292 0
-161 -193 0
-161 -220 0
-161 -253 0
-161 -292 0
-193 -220 0
-193 -253 0
-193 -292 0
-220 -253 0
-220 -292 0
-253 -292 0
-126 -162 0
-126 -194 0
-162 -194 0
-48 -93 0
-48 -127 0
-48 -163 0
-48 -221 0
-93 -127 0
-93 -163 0
-93 -221 0
-127 -163 0
-127 -221 0
-163 -221 0
-14 -49 0
-14 -94 0
-14 -222 0
-49 -94 0
-49 -222 0
-94 -222 0
-15 -95 0
-50 -96 0
-50 -164 0
-50 -195 0
-50 -223 0
-96 -164 0
-96 -195 0
-96 -223 0
-164 -195 0
-164 -223 0
-195 -223 0
-16 -51 0
-16 -97 0
-16 -128 0
-16 -165 0
-16 -196 0
-51 -97 0
-51 -128 0
-51 -165 0
-51 -196 0
-97 -128 0
-97 -165 0
-97 -196 0
-128 -165 0
-128 -196 0
-165 -196 0
-17 -52 0
-17 -98 0
-17 -129 0
-17 -166 0
-17 -197 0
-17 -224 0
-52 -98 0
-52 -129 0
-52 -166 0
-52 -197 0
-52 -224 0
-98 -129 0
-98 -166 0
-98 -197 0
-98 -224 0
-129 -166 0
-129 -197 0
-129 -224 0
-166 -197 0
-166 -224 0
-197 -224 0
-99 -198 0
-100 -130 0
-100 -225 0
-100 -254 0
-100 -293 0
-130 -225 0
-130 -254 0
-130 -293 0
-225 -254 0
-225 -293 0
-254 -293 0
-18 -101 0
-18 -226 0
-18 -294 0
-101 -226 0
-101 -294 0
-226 -294 0
-102 -199 0
-102 -227 0
-102 -255 0
-102 -295 0
-199 -227 0
-199 -255 0
-199 -295 0
-227 -255 0
-227 -295 0
-255 -295 0
-19 -103 0
-19 -200 0
-103 -200 0
-20 -104 0
-20 -131 0
-20 -201 0
-20 -256 0
-20 -296 0
-104 -131 0
-104 -201 0
-104 -256 0
-104 -296 0
-131 -201 0
-131 -256 0
-131 -296 0
-201 -256 0
-201 -296 0
-256 -296 0
-21 -105 0
-21 -132 0
-21 -202 0
-21 -228 0
-21 -257 0
-21 -297 0
-105 -132 0
-105 -202 0
-105 -228 0
-105 -257 0
-105 -297 0
-132 -202 0
-132 -228 0
-132 -257 0
-132 -297 0
-202 -228 0
-202 -257 0
-202 -297 0
-228 -257 0
-228 -297 0
-257 -297 0
-133 -203 0
-133 -258 0
-133 -298 0
-203 -258 0
-203 -298 0
-258 -298 0
-53 -106 0
-53 -204 0
-106 -204 0
-54 -107 0
-54 -134 0
-54 -229 0
-54 -259 0
-54 -299 0
-107 -134 0
-107 -229 0
-107 -259 0
-107 -299 0
-134 -229 0
-134 -259 0
-134 -299 0
-229 -259 0
-229 -299 0
-259 -299 0
-22 -108 0
-22 -260 0
-22 -300 0
-108 -260 0
-108 -300 0
-260 -300 0
-55 -109 0
-55 -205 0
-55 -230 0
-55 -261 0
-55 -301 0
-109 -205 0
-109 -230 0
-109 -261 0
-109 -301 0
-205 -230 0
-205 -261 0
-205 -301 0
-230 -261 0
-230 -301 0
-261 -301 0
-23 -56 0
-23 -110 0
-23 -206 0
-56 -110 0
-56 -206 0
-110 -206 0
-24 -57 0
-24 -111 0
-24 -135 0
-24 -207 0
-24 -262 0
-24 -302 0
-57 -111 0
-57 -135 0
-57 -207 0
-57 -262 0
-57 -302 0
-111 -135 0
-111 -207 0
-111 -262 0
-111 -302 0
-135 -207 0
-135 -262 0
-135 -302 0
-207 -262 0
-207 -302 0
-262 -302 0
-25 -58 0
-25 -112 0
-25 -136 0
-25 -208 0
-25 -231 0
-25 -263 0
-25 -303 0
-58 -112 0
-58 -136 0
-58 -208 0
-58 -231 0
-58 -263 0
-58 -303 0
-112 -136 0
-112 -208 0
-112 -231 0
-112 -263 0
-112 -303 0
-136 -208 0
-136 -231 0
-136 -263 0
-136 -303 0
-208 -231 0
-208 -263 0
-208 -303 0
-231 -263 0
-231 -303 0
-263 -303 0
-1 -5 0
-1 -59 0
-1 -64 0
-1 -70 0
-5 -59 0
-5 -64 0
-5 -70 0
-59 -64 0
-59 -70 0
-64 -70 0
-26 -60 0
-26 -65 0
-60 -65 0
-30 -66 0
-30 -71 0
-66 -71 0
-2 -6 0
-2 -27 0
-2 -31 0
-2 -61 0
-2 -67 0
-2 -72 0
-6 -27 0
-6 -31 0
-6 -61 0
-6 -67 0
-6 -72 0
-27 -31 0
-27 -61 0
-27 -67 0
-27 -72 0
-31 -61 0
-31 -67 0
-31 -72 0
-61 -67 0
-61 -72 0
-67 -72 0
-3 -7 0
-3 -32 0
-3 -68 0
-3 -73 0
-7 -32 0
-7 -68 0
-7 -73 0
-32 -68 0
-32 -73 0
-68 -73 0
-8 -28 0
-8 -33 0
-8 -62 0
-8 -74 0
-28 -33 0
-28 -62 0
-28 -74 0
-33 -62 0
-33 -74 0
-62 -74 0
-4 -9 0
-4 -29 0
-4 -34 0
-4 -63 0
-4 -69 0
-4 -75 0
-9 -29 0
-9 -34 0
-9 -63 0
-9 -69 0
-9 -75 0
-29 -34 0
-29 -63 0
-29 -69 0
-29 -75 0
-34 -63 0
-34 -69 0
-34 -75 0
-63 -69 0
-63 -75 0
-69 -75 0
-10 -81 0
-10 -86 0
-81 -86 0
-35 -43 0
-35 -76 0
-35 -87 0
-43 -76 0
-43 -87 0
-76 -87 0
-77 -88 0
-39 -44 0
-39 -82 0
-39 -89 0
-44 -82 0
-44 -89 0
-82 -89 0
-11 -36 0
-11 -40 0
-11 -45 0
-11 -78 0
-11 -83 0
-11 -90 0
-36 -40 0
-36 -45 0
-36 -78 0
-36 -83 0
-36 -90 0
-40 -45 0
-40 -78 0
-40 -83 0
-40 -90 0
-45 -78 0
-45 -83 0
-45 -90 0
-78 -83 0
-78 -90 0
-83 -90 0
-12 -37 0
-12 -41 0
-12 -46 0
-12 -79 0
-12 -84 0
-12 -91 0
-37 -41 0
-37 -46 0
-37 -79 0
-37 -84 0
-37 -91 0
-41 -46 0
-41 -79 0
-41 -84 0
-41 -91 0
-46 -79 0
-46 -84 0
-46 -91 0
-79 -84 0
-79 -91 0
-84 -91 0
-13 -38 0
-13 -42 0
-13 -47 0
-13 -80 0
-13 -85 0
-13 -92 0
-38 -42 0
-38 -47 0
-38 -80 0
-38 -85 0
-38 -92 0
-42 -47 0
-42 -80 0
-42 -85 0
-42 -92 0
-47 -80 0
-47 -85 0
-47 -92 0
-80 -85 0
-80 -92 0
-85 -92 0
-53 -99 0
-53 -106 0
-99 -106 0
-48 -54 0
-48 -93 0
-48 -100 0
-48 -107 0
-54 -93 0
-54 -100 0
-54 -107 0
-93 -100 0
-93 -107 0
-100 -107 0
-14 -18 0
-14 -49 0
-14 -94 0
-14 -101 0
-18 -49 0
-18 -94 0
-18 -101 0
-49 -94 0
-49 -101 0
-94 -101 0
-15 -22 0
-15 -95 0
-15 -108 0
-22 -95 0
-22 -108 0
-95 -108 0
-50 -55 0
-50 -96 0
-50 -102 0
-50 -109 0
-55 -96 0
-55 -102 0
-55 -109 0
-96 -102 0
-96 -109 0
-102 -109 0
-19 -23 0
-19 -56 0
-19 -103 0
-19 -110 0
-23 -56 0
-23 -103 0
-23 -110 0
-56 -103 0
-56 -110 0
-103 -110 0
-16 -20 0
-16 -24 0
-16 -51 0
-16 -57 0
-16 -97 0
-16 -104 0
-16 -111 0
-20 -24 0
-20 -51 0
-20 -57 0
-20 -97 0
-20 -104 0
-20 -111 0
-24 -51 0
-24 -57 0
-24 -97 0
-24 -104 0
-24 -111 0
-51 -57 0
-51 -97 0
-51 -104 0
-51 -111 0
-57 -97 0
-57 -104 0
-57 -111 0
-97 -104 0
-97 -111 0
-104 -111 0
-17 -21 0
-17 -25 0
-17 -52 0
-17 -58 0
-17 -98 0
-17 -105 0
-17 -112 0
-21 -25 0
-21 -52 0
-21 -58 0
-21 -98 0
-21 -105 0
-21 -112 0
-25 -52 0
-25 -58 0
-25 -98 0
-25 -105 0
-25 -112 0
-52 -58 0
-52 -98 0
-52 -105 0
-52 -112 0
-58 -98 0
-58 -105 0
-58 -112 0
-98 -105 0
-98 -112 0
-105 -112 0
-113 -137 0
-113 -140 0
-113 -143 0
-113 -167 0
-113 -171 0
-137 -140 0
-137 -143 0
-137 -167 0
-137 -171 0
-140 -143 0
-140 -167 0
-140 -171 0
-143 -167 0
-143 -171 0
-167 -171 0
-114 -168 0
-114 -172 0
-168 -172 0
-141 -144 0
-141 -169 0
-141 -174 0
-144 -169 0
-144 -174 0
-169 -174 0
-138 -145 0
-138 -175 0
-145 -175 0
-115 -139 0
-115 -142 0
-115 -146 0
-115 -170 0
-115 -176 0
-139 -142 0
-139 -146 0
-139 -170 0
-139 -176 0
-142 -146 0
-142 -170 0
-142 -176 0
-146 -170 0
-146 -176 0
-170 -176 0
-116 -120 0
-116 -151 0
-116 -157 0
-116 -183 0
-116 -188 0
-120 -151 0
-120 -157 0
-120 -183 0
-120 -188 0
-151 -157 0
-151 -183 0
-151 -188 0
-157 -183 0
-157 -188 0
-183 -188 0
-147 -152 0
-147 -177 0
-147 -184 0
-152 -177 0
-152 -184 0
-177 -184 0
-117 -121 0
-117 -153 0
-117 -158 0
-121 -153 0
-121 -158 0
-153 -158 0
-122 -178 0
-122 -189 0
-178 -189 0
-123 -179 0
-123 -190 0
-179 -190 0
-148 -154 0
-148 -159 0
-148 -180 0
-148 -185 0
-148 -191 0
-154 -159 0
-154 -180 0
-154 -185 0
-154 -191 0
-159 -180 0
-159 -185 0
-159 -191 0
-180 -185 0
-180 -191 0
-185 -191 0
-118 -124 0
-118 -149 0
-118 -155 0
-118 -160 0
-118 -181 0
-118 -186 0
-118 -192 0
-124 -149 0
-124 -155 0
-124 -160 0
-124 -181 0
-124 -186 0
-124 -192 0
-149 -155 0
-149 -160 0
-149 -181 0
-149 -186 0
-149 -192 0
-155 -160 0
-155 -181 0
-155 -186 0
-155 -192 0
-160 -181 0
-160 -186 0
-160 -192 0
-181 -186 0
-181 -192 0
-186 -192 0
-119 -125 0
-119 -150 0
-119 -156 0
-119 -161 0
-119 -182 0
-119 -187 0
-119 -193 0
-125 -150 0
-125 -156 0
-125 -161 0
-125 -182 0
-125 -187 0
-125 -193 0
-150 -156 0
-150 -161 0
-150 -182 0
-150 -187 0
-150 -193 0
-156 -161 0
-156 -182 0
-156 -187 0
-156 -193 0
-161 -182 0
-161 -187 0
-161 -193 0
-182 -187 0
-182 -193 0
-187 -193 0
-126 -133 0
-126 -162 0
-126 -194 0
-126 -203 0
-133 -162 0
-133 -194 0
-133 -203 0
-162 -194 0
-162 -203 0
-194 -203 0
-198 -204 0
-127 -130 0
-127 -134 0
-127 -163 0
-130 -134 0
-130 -163 0
-134 -163 0
-164 -195 0
-164 -199 0
-164 -205 0
-195 -199 0
-195 -205 0
-199 -205 0
-200 -206 0
-128 -131 0
-128 -135 0
-128 -165 0
-128 -196 0
-128 -201 0
-128 -207 0
-131 -135 0
-131 -165 0
-131 -196 0
-131 -201 0
-131 -207 0
-135 -165 0
-135 -196 0
-135 -201 0
-135 -207 0
-165 -196 0
-165 -201 0
-165 -207 0
-196 -201 0
-196 -207 0
-201 -207 0
-129 -132 0
-129 -136 0
-129 -166 0
-129 -197 0
-129 -202 0
-129 -208 0
-132 -136 0
-132 -166 0
-132 -197 0
-132 -202 0
-132 -208 0
-136 -166 0
-136 -197 0
-136 -202 0
-136 -208 0
-166 -197 0
-166 -202 0
-166 -208 0
-197 -202 0
-197 -208 0
-202 -208 0
-232 -235 0
-232 -240 0
-232 -264 0
-232 -269 0
-232 -275 0
-235 -240 0
-235 -264 0
-235 -269 0
-235 -275 0
-240 -264 0
-240 -269 0
-240 -275 0
-264 -269 0
-264 -275 0
-269 -275 0
-209 -265 0
-209 -270 0
-265 -270 0
-212 -236 0
-212 -241 0
-212 -271 0
-212 -276 0
-236 -241 0
-236 -271 0
-236 -276 0
-241 -271 0
-241 -276 0
-271 -276 0
-210 -213 0
-210 -266 0
-210 -272 0
-210 -277 0
-213 -266 0
-213 -272 0
-213 -277 0
-266 -272 0
-266 -277 0
-272 -277 0
-233 -242 0
-233 -267 0
-233 -278 0
-242 -267 0
-242 -278 0
-267 -278 0
-214 -237 0
-214 -243 0
-214 -273 0
-214 -279 0
-237 -243 0
-237 -273 0
-237 -279 0
-243 -273 0
-243 -279 0
-273 -279 0
-215 -238 0
-215 -244 0
-238 -244 0
-211 -216 0
-211 -234 0
-211 -239 0
-211 -245 0
-211 -268 0
-211 -274 0
-211 -280 0
-216 -234 0
-216 -239 0
-216 -245 0
-216 -268 0
-216 -274 0
-216 -280 0
-234 -239 0
-234 -245 0
-234 -268 0
-234 -274 0
-234 -280 0
-239 -245 0
-239 -268 0
-239 -274 0
-239 -280 0
-245 -268 0
-245 -274 0
-245 -280 0
-268 -274 0
-268 -280 0
-274 -280 0
-281 -284 0
-217 -249 0
-217 -285 0
-217 -289 0
-249 -285 0
-249 -289 0
-285 -289 0
-218 -250 0
-218 -286 0
-218 -290 0
-250 -286 0
-250 -290 0
-286 -290 0
-219 -246 0
-219 -251 0
-246 -251 0
-247 -252 0
-247 -282 0
-247 -287 0
-247 -291 0
-252 -282 0
-252 -287 0
-252 -291 0
-282 -287 0
-282 -291 0
-287 -291 0
-220 -248 0
-220 -253 0
-220 -283 0
-220 -288 0
-220 -292 0
-248 -253 0
-248 -283 0
-248 -288 0
-248 -292 0
-253 -283 0
-253 -288 0
-253 -292 0
-283 -288 0
-283 -292 0
-288 -292 0
-258 -298 0
-221 -225 0
-221 -229 0
-221 -254 0
-221 -259 0
-221 -293 0
-221 -299 0
-225 -229 0
-225 -254 0
-225 -259 0
-225 -293 0
-225 -299 0
-229 -254 0
-229 -259 0
-229 -293 0
-229 -299 0
-254 -259 0
-254 -293 0
-254 -299 0
-259 -293 0
-259 -299 0
-293 -299 0
-222 -226 0
-222 -294 0
-226 -294 0
-260 -300 0
-223 -227 0
-223 -230 0
-223 -255 0
-223 -261 0
-223 -295 0
-223 -301 0
-227 -230 0
-227 -255 0
-227 -261 0
-227 -295 0
-227 -301 0
-230 -255 0
-230 -261 0
-230 -295 0
-230 -301 0
-255 -261 0
-255 -295 0
-255 -301 0
-261 -295 0
-261 -301 0
-295 -301 0
-256 -262 0
-256 -296 0
-256 -302 0
-262 -296 0
-262 -302 0
-296 -302 0
-224 -228 0
-224 -231 0
-224 -257 0
-224 -263 0
-224 -297 0
-224 -303 0
-228 -231 0
-228 -257 0
-228 -263 0
-228 -297 0
-228 -303 0
-231 -257 0
-231 -263 0
-231 -297 0
-231 -303 0
-257 -263 0
-257 -297 0
-257 -303 0
-263 -297 0
-263 -303 0
-297 -303 0
1 2 3 4 0
5 6 7 8 9 0
10 11 12 13 0
14 15 16 17 0
18 19 20 21 0
22 23 24 25 0
26 27 28 29 0
30 31 32 33 34 0
35 36 37 38 0
39 40 41 42 0
43 44 45 46 47 0
48 49 50 51 52 0
53 54 55 56 57 58 0
59 60 61 62 63 0
64 65 66 67 68 69 0
70 71 72 73 74 75 0
76 77 78 79 80 0
81 82 83 84 85 0
86 87 88 89 90 91 92 0
93 94 95 96 97 98 0
99 100 101 102 103 104 105 0
106 107 108 109 110 111 112 0
113 114 115 0
116 117 118 119 0
120 121 122 123 124 125 0
126 127 128 129 0
130 131 132 0
133 134 135 136 0
137 138 139 0
140 141 142 0
143 144 145 146 0
147 148 149 150 0
151 152 153 154 155 156 0
157 158 159 160 161 0
162 163 164 165 166 0
167 168 169 170 0
171 172 173 174 175 176 0
177 178 179 180 181 182 0
183 184 185 186 187 0
188 189 190 191 192 193 0
194 195 196 197 0
198 199 200 201 202 0
203 204 205 206 207 208 0
209 210 211 0
212 213 214 215 216 0
217 218 219 220 0
221 222 223 224 0
225 226 227 228 0
229 230 231 0
232 233 234 0
235 236 237 238 239 0
240 241 242 243 244 245 0
246 247 248 0
249 250 251 252 253 0
254 255 256 257 0
258 259 260 261 262 263 0
264 265 266 267 268 0
269 270 271 272 273 274 0
275 276 277 278 279 280 0
281 282 283 0
284 285 286 287 288 0
289 290 291 292 0
293 294 295 296 297 0
298 299 300 301 302 303 0
1 5 10 0
2 6 14 18 0
15 22 0
3 7 11 19 23 0
8 12 16 20 24 0
4 9 13 17 21 25 0
26 53 0
30 48 54 0
27 31 35 43 49 0
39 44 50 55 0
32 36 40 45 56 0
28 33 37 41 46 51 57 0
29 34 38 42 47 52 58 0
59 64 70 81 86 0
60 65 99 106 0
66 71 93 100 107 0
61 67 72 76 87 94 101 0
77 88 95 108 0
82 89 96 102 109 0
68 73 78 83 90 103 110 0
62 74 79 84 91 97 104 111 0
63 69 75 80 85 92 98 105 112 0
113 116 120 126 133 0
117 121 127 130 134 0
114 122 0
123 0
118 124 128 131 135 0
115 119 125 129 132 136 0
137 140 143 151 157 162 0
147 152 0
153 158 163 0
141 144 164 0
148 154 159 0
138 145 149 155 160 165 0
139 142 146 150 156 161 166 0
167 171 183 188 194 203 0
177 184 198 204 0
168 172 178 189 0
173 179 190 0
169 174 195 199 205 0
180 185 191 200 206 0
175 181 186 192 196 201 207 0
170 176 182 187 193 197 202 208 0
209 0
212 217 221 225 229 0
210 213 222 226 0
214 218 223 227 230 0
215 219 0
211 216 220 224 228 231 0
232 235 240 258 0
236 241 249 254 259 0
233 242 260 0
237 243 250 255 261 0
238 244 246 251 0
247 252 256 262 0
234 239 245 248 253 257 263 0
264 269 275 298 0
265 270 281 284 0
271 276 285 289 293 299 0
266 272 277 294 0
267 278 300 0
273 279 286 290 295 301 0
282 287 291 296 302 0
268 274 280 283 288 292 297 303 0
59 137 232 264 0
26 60 209 265 0
27 61 210 266 0
233 267 0
28 62 138 0
29 63 139 211 234 268 0
1 64 113 140 167 235 269 0
65 270 0
66 236 271 0
2 67 114 168 272 0
141 169 237 273 0
3 68 238 0
4 69 115 142 170 239 274 0
5 70 143 171 240 275 0
30 71 212 241 276 0
6 31 72 172 213 277 0
173 242 278 0
144 174 214 243 279 0
7 32 73 215 244 0
8 33 74 145 175 0
9 34 75 146 176 216 245 280 0
147 177 281 0
35 76 178 0
77 179 0
36 78 148 180 246 0
37 79 149 181 247 282 0
38 80 150 182 248 283 0
10 81 116 151 183 0
152 184 284 0
117 153 285 0
39 82 286 0
11 40 83 154 185 0
12 41 84 118 155 186 287 0
13 42 85 119 156 187 288 0
86 120 157 188 0
121 158 217 249 289 0
43 87 122 189 0
88 123 190 0
44 89 218 250 290 0
45 90 159 191 219 251 0
46 91 124 160 192 252 291 0
47 92 125 161 193 220 253 292 0
126 162 194 0
48 93 127 163 221 0
14 49 94 222 0
15 95 0
50 96 164 195 223 0
16 51 97 128 165 196 0
17 52 98 129 166 197 224 0
99 198 0
100 130 225 254 293 0
18 101 226 294 0
102 199 227 255 295 0
19 103 200 0
20 104 131 201 256 296 0
21 105 132 202 228 257 297 0
133 203 258 298 0
53 106 204 0
54 107 134 229 259 299 0
22 108 260 300 0
55 109 205 230 261 301 0
23 56 110 206 0
24 57 111 135 207 262 302 0
25 58 112 136 208 231 263 303 0
1 5 59 64 70 0
26 60 65 0
30 66 71 0
2 6 27 31 61 67 72 0
3 7 32 68 73 0
8 28 33 62 74 0
4 9 29 34 63 69 75 0
10 81 86 0
35 43 76 87 0
77 88 0
39 44 82 89 0
11 36 40 45 78 83 90 0
12 37 41 46 79 84 91 0
13 38 42 47 80 85 92 0
53 99 106 0
48 54 93 100 107 0
14 18 49 94 101 0
15 22 95 108 0
50 55 96 102 109 0
19 23 56 103 110 0
16 20 24 51 57 97 104 111 0
17 21 25 52 58 98 105 112 0
113 137 140 143 167 171 0
114 168 172 0
173 0
141 144 169 174 0
138 145 175 0
115 139 142 146 170 176 0
116 120 151 157 183 188 0
147 152 177 184 0
117 121 153 158 0
122 178 189 0
123 179 190 0
148 154 159 180 185 191 0
118 124 149 155 160 181 186 192 0
119 125 150 156 161 182 187 193 0
126 133 162 194 203 0
198 204 0
127 130 134 163 0
164 195 199 205 0
200 206 0
128 131 135 165 196 201 207 0
129 132 136 166 197 202 208 0
232 235 240 264 269 275 0
209 265 270 0
212 236 241 271 276 0
210 213 266 272 277 0
233 242 267 278 0
214 237 243 273 279 0
215 238 244 0
211 216 234 239 245 268 274 280 0
281 284 0
217 249 285 289 0
218 250 286 290 0
219 246 251 0
247 252 282 287 291 0
220 248 253 283 288 292 0
258 298 0
221 225 229 254 259 293 299 0
222 226 294 0
260 300 0
223 227 230 255 261 295 301 0
256 262 296 302 0
224 228 231 257 263 297 303 0
